problem_generation/data/GISP/train/er_n=61_m=1045_p=0.60_SET2_setparam=100.00_alpha=0.50_185.lp
maximize
OBJ:100x0 + 100x1 + 100x2 + 100x3 + 100x4 + 100x5 + 100x6 + 100x7 + 100x8 + 100x9 + 100x10 + 100x11 + 100x12 + 100x13 + 100x14 + 100x15 + 100x16 + 100x17 + 100x18 + 100x19 + 100x20 + 100x21 + 100x22 + 100x23 + 100x24 + 100x25 + 100x26 + 100x27 + 100x28 + 100x29 + 100x30 + 100x31 + 100x32 + 100x33 + 100x34 + 100x35 + 100x36 + 100x37 + 100x38 + 100x39 + 100x40 + 100x41 + 100x42 + 100x43 + 100x44 + 100x45 + 100x46 + 100x47 + 100x48 + 100x49 + 100x50 + 100x51 + 100x52 + 100x53 + 100x54 + 100x55 + 100x56 + 100x57 + 100x58 + 100x59 + 100x60 - y55_57 - y15_39 - y18_35 - y29_41 - y21_37 - y6_48 - y29_59 - y40_59 - y10_36 - y25_34 - y44_47 - y25_43 - y44_56 - y14_24 - y14_33 - y3_42 - y14_42 - y14_51 - y15_16 - y36_48 - y9_49 - y5_60 - y9_58 - y48_49 - y21_32 - y6_43 - y10_31 - y10_40 - y33_42 - y2_36 - y10_49 - y44_51 - y10_58 - y32_55 - y13_51 - y17_39 - y7_16 - y47_52 - y9_44 - y17_57 - y9_53 - y29_31 - y21_27 - y6_38 - y6_47 - y29_49 - y10_17 - y54_60 - y10_44 - y25_42 - y2_49 - y32_50 - y24_46 - y32_59 - y16_51 - y28_34 - y36_47 - y5_41 - y36_56 - y17_52 - y6_15 - y21_40 - y6_51 - y10_12 - y10_21 - y10_39 - y23_58 - y32_45 - y43_45 - y35_41 - y14_18 - y16_37 - y1_48 - y35_50 - y13_59 - y16_55 - y17_20 - y36_42 - y9_25 - y5_36 - y47_51 - y9_43 - y17_56 - y29_30 - y6_37 - y20_39 - y39_52 - y31_48 - y12_44 - y20_57 - y31_57 - y51_53 - y35_45 - y32_58 - y9_11 - y46_60 - y57_60 - y5_31 - y28_33 - y17_42 - y6_23 - y27_55 - y6_32 - y42_53 - y21_30 - y8_60 - y11_56 - y20_43 - y31_43 - y23_48 - y1_29 - y13_31 - y24_31 - y16_27 - y1_38 - y35_40 - y43_53 - y1_47 - y24_49 - y5_8 - y35_58 - y16_54 - y5_17 - y27_41 - y27_50 - y30_46 - y42_48 - y0_51 - y0_60 - y12_25 - y20_38 - y12_34 - y2_11 - y4_39 - y12_52 - y13_26 - y32_39 - y16_31 - y1_42 - y13_44 - y16_49 - y5_12 - y9_10 - y57_59 - y7_58 - y8_32 - y27_45 - y8_41 - y0_37 - y19_50 - y42_52 - y19_59 - y30_59 - y31_33 - y31_42 - y12_38 - y4_34 - y1_10 - y12_56 - y1_19 - y13_21 - y16_17 - y45_53 - y1_28 - y24_30 - y1_37 - y9_14 - y49_50 - y7_44 - y18_53 - y19_36 - y27_49 - y11_32 - y19_45 - y0_41 - y11_50 - y12_24 - y12_42 - y45_48 - y37_44 - y16_21 - y3_51 - y26_34 - y7_39 - y18_39 - y15_52 - y26_52 - y49_54 - y27_44 - y0_27 - y8_40 - y19_40 - y27_53 - y41_46 - y41_55 - y1_9 - y3_46 - y37_48 - y37_57 - y15_29 - y26_38 - y26_47 - y15_56 - y0_4 - y8_17 - y27_39 - y0_22 - y11_22 - y30_44 - y0_40 - y11_40 - y41_59 - y4_19 - y10_53 - y1_4 - y1_13 - y34_47 - y37_52 - y7_20 - y15_42 - y7_47 - y0_8 - y7_56 - y19_21 - y48_57 - y0_26 - y41_45 - y33_41 - y52_54 - y44_50 - y2_44 - y10_57 - y3_27 - y14_27 - y34_42 - y3_36 - y34_51 - y14_45 - y22_58 - y26_28 - y0_3 - y8_16 - y11_12 - y19_25 - y11_21 - y21_53 - y41_49 - y25_32 - y10_43 - y33_45 - y41_58 - y25_41 - y44_45 - y33_54 - y52_58 - y2_48 - y2_57 - y22_35 - y14_40 - y22_53 - y3_49 - y14_49 - y15_23 - y47_55 - y18_28 - y29_34 - y0_7 - y6_41 - y0_16 - y11_16 - y21_48 - y2_25 - y10_38 - y2_34 - y33_49 - y25_45 - y3_8 - y2_52 - y14_17 - y22_39 - y3_44 - y7_14 - y9_60 - y21_34 - y21_43 - y21_52 - y10_24 - y25_31 - y10_42 - y2_38 - y43_48 - y3_21 - y14_21 - y32_57 - y35_53 - y43_57 - y14_30 - y17_32 - y7_9 - y17_50 - y5_57 - y6_31 - y29_51 - y40_51 - y2_6 - y2_33 - y3_7 - y32_43 - y51_56 - y13_39 - y43_52 - y24_48 - y35_48 - y16_44 - y24_57 - y36_40 - y5_34 - y36_49 - y36_58 - y6_17 - y6_35 - y21_33 - y6_44 - y21_42 - y39_59 - y12_51 - y23_60 - y4_56 - y13_34 - y3_11 - y43_56 - y16_39 - y1_50 - y35_52 - y9_36 - y28_49 - y5_56 - y21_28 - y2_5 - y20_41 - y31_41 - y31_50 - y23_46 - y20_59 - y4_42 - y4_51 - y1_36 - y24_38 - y35_47 - y46_53 - y5_24 - y36_39 - y9_22 - y49_58 - y9_31 - y28_44 - y42_46 - y0_58 - y2_9 - y39_58 - y31_54 - y1_22 - y53_60 - y4_55 - y16_20 - y32_37 - y13_33 - y43_46 - y13_42 - y16_47 - y5_10 - y46_48 - y5_19 - y17_30 - y5_37 - y27_34 - y6_20 - y30_39 - y30_48 - y0_44 - y11_44 - y42_59 - y23_36 - y20_49 - y23_45 - y31_58 - y4_41 - y13_28 - y4_59 - y16_24 - y13_37 - y24_37 - y38_39 - y9_12 - y15_46 - y38_48 - y26_55 - y38_57 - y8_25 - y8_34 - y19_34 - y8_52 - y20_26 - y11_57 - y12_22 - y20_35 - y20_44 - y1_12 - y4_45 - y45_46 - y13_23 - y53_59 - y34_55 - y1_30 - y37_51 - y1_39 - y37_60 - y15_41 - y7_46 - y18_46 - y26_59 - y18_55 - y8_29 - y27_42 - y8_38 - y0_34 - y8_47 - y8_56 - y0_52 - y12_17 - y52_53 - y12_26 - y4_22 - y1_7 - y34_59 - y45_59 - y5_13 - y18_32 - y7_41 - y18_41 - y15_54 - y49_56 - y7_59 - y27_37 - y0_20 - y8_33 - y30_33 - y27_46 - y0_29 - y11_29 - y0_47 - y41_48 - y20_25 - y44_53 - y4_26 - y4_35 - y22_34 - y34_36 - y37_41 - y14_48 - y15_22 - y7_18 - y15_31 - y26_31 - y38_42 - y26_49 - y7_45 - y18_45 - y0_6 - y7_54 - y8_19 - y11_15 - y19_28 - y0_24 - y19_37 - y12_16 - y41_52 - y2_51 - y25_53 - y1_6 - y34_40 - y22_47 - y45_58 - y37_54 - y15_17 - y7_13 - y59_60 - y26_44 - y7_40 - y18_40 - y40_46 - y8_23 - y29_55 - y30_32 - y52_56 - y33_52 - y25_57 - y34_35 - y14_29 - y34_44 - y37_49
 Subject to
C1: x0+x3-y0_3 <=1 
C2: x0+x4-y0_4 <=1 
C3: x0+x5 <=1 
C4: x0+x6-y0_6 <=1 
C5: x0+x7-y0_7 <=1 
C6: x0+x8-y0_8 <=1 
C7: x0+x9 <=1 
C8: x0+x12 <=1 
C9: x0+x14 <=1 
C10: x0+x16-y0_16 <=1 
C11: x0+x18 <=1 
C12: x0+x20-y0_20 <=1 
C13: x0+x21 <=1 
C14: x0+x22-y0_22 <=1 
C15: x0+x23 <=1 
C16: x0+x24-y0_24 <=1 
C17: x0+x25 <=1 
C18: x0+x26-y0_26 <=1 
C19: x0+x27-y0_27 <=1 
C20: x0+x28 <=1 
C21: x0+x29-y0_29 <=1 
C22: x0+x31 <=1 
C23: x0+x34-y0_34 <=1 
C24: x0+x37-y0_37 <=1 
C25: x0+x38 <=1 
C26: x0+x40-y0_40 <=1 
C27: x0+x41-y0_41 <=1 
C28: x0+x42 <=1 
C29: x0+x44-y0_44 <=1 
C30: x0+x45 <=1 
C31: x0+x46 <=1 
C32: x0+x47-y0_47 <=1 
C33: x0+x49 <=1 
C34: x0+x50 <=1 
C35: x0+x51-y0_51 <=1 
C36: x0+x52-y0_52 <=1 
C37: x0+x55 <=1 
C38: x0+x57 <=1 
C39: x0+x58-y0_58 <=1 
C40: x0+x60-y0_60 <=1 
C41: x1+x2 <=1 
C42: x1+x3 <=1 
C43: x1+x4-y1_4 <=1 
C44: x1+x6-y1_6 <=1 
C45: x1+x7-y1_7 <=1 
C46: x1+x8 <=1 
C47: x1+x9-y1_9 <=1 
C48: x1+x10-y1_10 <=1 
C49: x1+x12-y1_12 <=1 
C50: x1+x13-y1_13 <=1 
C51: x1+x14 <=1 
C52: x1+x18 <=1 
C53: x1+x19-y1_19 <=1 
C54: x1+x21 <=1 
C55: x1+x22-y1_22 <=1 
C56: x1+x24 <=1 
C57: x1+x26 <=1 
C58: x1+x28-y1_28 <=1 
C59: x1+x29-y1_29 <=1 
C60: x1+x30-y1_30 <=1 
C61: x1+x31 <=1 
C62: x1+x34 <=1 
C63: x1+x36-y1_36 <=1 
C64: x1+x37-y1_37 <=1 
C65: x1+x38-y1_38 <=1 
C66: x1+x39-y1_39 <=1 
C67: x1+x42-y1_42 <=1 
C68: x1+x46 <=1 
C69: x1+x47-y1_47 <=1 
C70: x1+x48-y1_48 <=1 
C71: x1+x50-y1_50 <=1 
C72: x1+x53 <=1 
C73: x1+x56 <=1 
C74: x1+x60 <=1 
C75: x2+x5-y2_5 <=1 
C76: x2+x6-y2_6 <=1 
C77: x2+x7 <=1 
C78: x2+x9-y2_9 <=1 
C79: x2+x11-y2_11 <=1 
C80: x2+x13 <=1 
C81: x2+x14 <=1 
C82: x2+x22 <=1 
C83: x2+x25-y2_25 <=1 
C84: x2+x29 <=1 
C85: x2+x33-y2_33 <=1 
C86: x2+x34-y2_34 <=1 
C87: x2+x36-y2_36 <=1 
C88: x2+x38-y2_38 <=1 
C89: x2+x39 <=1 
C90: x2+x41 <=1 
C91: x2+x44-y2_44 <=1 
C92: x2+x47 <=1 
C93: x2+x48-y2_48 <=1 
C94: x2+x49-y2_49 <=1 
C95: x2+x51-y2_51 <=1 
C96: x2+x52-y2_52 <=1 
C97: x2+x54 <=1 
C98: x2+x55 <=1 
C99: x2+x57-y2_57 <=1 
C100: x2+x58 <=1 
C101: x2+x60 <=1 
C102: x3+x4 <=1 
C103: x3+x7-y3_7 <=1 
C104: x3+x8-y3_8 <=1 
C105: x3+x9 <=1 
C106: x3+x10 <=1 
C107: x3+x11-y3_11 <=1 
C108: x3+x13 <=1 
C109: x3+x18 <=1 
C110: x3+x21-y3_21 <=1 
C111: x3+x22 <=1 
C112: x3+x24 <=1 
C113: x3+x27-y3_27 <=1 
C114: x3+x30 <=1 
C115: x3+x31 <=1 
C116: x3+x34 <=1 
C117: x3+x36-y3_36 <=1 
C118: x3+x40 <=1 
C119: x3+x41 <=1 
C120: x3+x42-y3_42 <=1 
C121: x3+x43 <=1 
C122: x3+x44-y3_44 <=1 
C123: x3+x45 <=1 
C124: x3+x46-y3_46 <=1 
C125: x3+x48 <=1 
C126: x3+x49-y3_49 <=1 
C127: x3+x50 <=1 
C128: x3+x51-y3_51 <=1 
C129: x3+x53 <=1 
C130: x3+x58 <=1 
C131: x3+x59 <=1 
C132: x3+x60 <=1 
C133: x4+x5 <=1 
C134: x4+x6 <=1 
C135: x4+x7 <=1 
C136: x4+x8 <=1 
C137: x4+x19-y4_19 <=1 
C138: x4+x20 <=1 
C139: x4+x21 <=1 
C140: x4+x22-y4_22 <=1 
C141: x4+x23 <=1 
C142: x4+x24 <=1 
C143: x4+x25 <=1 
C144: x4+x26-y4_26 <=1 
C145: x4+x29 <=1 
C146: x4+x31 <=1 
C147: x4+x32 <=1 
C148: x4+x34-y4_34 <=1 
C149: x4+x35-y4_35 <=1 
C150: x4+x37 <=1 
C151: x4+x39-y4_39 <=1 
C152: x4+x40 <=1 
C153: x4+x41-y4_41 <=1 
C154: x4+x42-y4_42 <=1 
C155: x4+x43 <=1 
C156: x4+x45-y4_45 <=1 
C157: x4+x48 <=1 
C158: x4+x50 <=1 
C159: x4+x51-y4_51 <=1 
C160: x4+x52 <=1 
C161: x4+x54 <=1 
C162: x4+x55-y4_55 <=1 
C163: x4+x56-y4_56 <=1 
C164: x4+x59-y4_59 <=1 
C165: x5+x6 <=1 
C166: x5+x8-y5_8 <=1 
C167: x5+x10-y5_10 <=1 
C168: x5+x11 <=1 
C169: x5+x12-y5_12 <=1 
C170: x5+x13-y5_13 <=1 
C171: x5+x14 <=1 
C172: x5+x17-y5_17 <=1 
C173: x5+x19-y5_19 <=1 
C174: x5+x21 <=1 
C175: x5+x24-y5_24 <=1 
C176: x5+x26 <=1 
C177: x5+x29 <=1 
C178: x5+x30 <=1 
C179: x5+x31-y5_31 <=1 
C180: x5+x33 <=1 
C181: x5+x34-y5_34 <=1 
C182: x5+x36-y5_36 <=1 
C183: x5+x37-y5_37 <=1 
C184: x5+x38 <=1 
C185: x5+x41-y5_41 <=1 
C186: x5+x44 <=1 
C187: x5+x45 <=1 
C188: x5+x47 <=1 
C189: x5+x48 <=1 
C190: x5+x49 <=1 
C191: x5+x53 <=1 
C192: x5+x55 <=1 
C193: x5+x56-y5_56 <=1 
C194: x5+x57-y5_57 <=1 
C195: x5+x59 <=1 
C196: x5+x60-y5_60 <=1 
C197: x6+x7 <=1 
C198: x6+x9 <=1 
C199: x6+x10 <=1 
C200: x6+x12 <=1 
C201: x6+x14 <=1 
C202: x6+x15-y6_15 <=1 
C203: x6+x17-y6_17 <=1 
C204: x6+x18 <=1 
C205: x6+x19 <=1 
C206: x6+x20-y6_20 <=1 
C207: x6+x22 <=1 
C208: x6+x23-y6_23 <=1 
C209: x6+x25 <=1 
C210: x6+x26 <=1 
C211: x6+x30 <=1 
C212: x6+x31-y6_31 <=1 
C213: x6+x32-y6_32 <=1 
C214: x6+x34 <=1 
C215: x6+x35-y6_35 <=1 
C216: x6+x37-y6_37 <=1 
C217: x6+x38-y6_38 <=1 
C218: x6+x41-y6_41 <=1 
C219: x6+x42 <=1 
C220: x6+x43-y6_43 <=1 
C221: x6+x44-y6_44 <=1 
C222: x6+x47-y6_47 <=1 
C223: x6+x48-y6_48 <=1 
C224: x6+x50 <=1 
C225: x6+x51-y6_51 <=1 
C226: x6+x52 <=1 
C227: x6+x54 <=1 
C228: x6+x59 <=1 
C229: x6+x60 <=1 
C230: x7+x9-y7_9 <=1 
C231: x7+x12 <=1 
C232: x7+x13-y7_13 <=1 
C233: x7+x14-y7_14 <=1 
C234: x7+x16-y7_16 <=1 
C235: x7+x18-y7_18 <=1 
C236: x7+x20-y7_20 <=1 
C237: x7+x21 <=1 
C238: x7+x22 <=1 
C239: x7+x23 <=1 
C240: x7+x24 <=1 
C241: x7+x26 <=1 
C242: x7+x28 <=1 
C243: x7+x33 <=1 
C244: x7+x34 <=1 
C245: x7+x37 <=1 
C246: x7+x38 <=1 
C247: x7+x39-y7_39 <=1 
C248: x7+x40-y7_40 <=1 
C249: x7+x41-y7_41 <=1 
C250: x7+x43 <=1 
C251: x7+x44-y7_44 <=1 
C252: x7+x45-y7_45 <=1 
C253: x7+x46-y7_46 <=1 
C254: x7+x47-y7_47 <=1 
C255: x7+x48 <=1 
C256: x7+x50 <=1 
C257: x7+x52 <=1 
C258: x7+x53 <=1 
C259: x7+x54-y7_54 <=1 
C260: x7+x56-y7_56 <=1 
C261: x7+x57 <=1 
C262: x7+x58-y7_58 <=1 
C263: x7+x59-y7_59 <=1 
C264: x8+x10 <=1 
C265: x8+x11 <=1 
C266: x8+x15 <=1 
C267: x8+x16-y8_16 <=1 
C268: x8+x17-y8_17 <=1 
C269: x8+x19-y8_19 <=1 
C270: x8+x20 <=1 
C271: x8+x23-y8_23 <=1 
C272: x8+x24 <=1 
C273: x8+x25-y8_25 <=1 
C274: x8+x26 <=1 
C275: x8+x28 <=1 
C276: x8+x29-y8_29 <=1 
C277: x8+x30 <=1 
C278: x8+x32-y8_32 <=1 
C279: x8+x33-y8_33 <=1 
C280: x8+x34-y8_34 <=1 
C281: x8+x37 <=1 
C282: x8+x38-y8_38 <=1 
C283: x8+x40-y8_40 <=1 
C284: x8+x41-y8_41 <=1 
C285: x8+x43 <=1 
C286: x8+x44 <=1 
C287: x8+x47-y8_47 <=1 
C288: x8+x50 <=1 
C289: x8+x52-y8_52 <=1 
C290: x8+x55 <=1 
C291: x8+x56-y8_56 <=1 
C292: x8+x58 <=1 
C293: x8+x60-y8_60 <=1 
C294: x9+x10-y9_10 <=1 
C295: x9+x11-y9_11 <=1 
C296: x9+x12-y9_12 <=1 
C297: x9+x14-y9_14 <=1 
C298: x9+x20 <=1 
C299: x9+x21 <=1 
C300: x9+x22-y9_22 <=1 
C301: x9+x24 <=1 
C302: x9+x25-y9_25 <=1 
C303: x9+x26 <=1 
C304: x9+x28 <=1 
C305: x9+x29 <=1 
C306: x9+x30 <=1 
C307: x9+x31-y9_31 <=1 
C308: x9+x32 <=1 
C309: x9+x36-y9_36 <=1 
C310: x9+x38 <=1 
C311: x9+x40 <=1 
C312: x9+x43-y9_43 <=1 
C313: x9+x44-y9_44 <=1 
C314: x9+x45 <=1 
C315: x9+x48 <=1 
C316: x9+x49-y9_49 <=1 
C317: x9+x53-y9_53 <=1 
C318: x9+x54 <=1 
C319: x9+x58-y9_58 <=1 
C320: x9+x60-y9_60 <=1 
C321: x10+x12-y10_12 <=1 
C322: x10+x14 <=1 
C323: x10+x16 <=1 
C324: x10+x17-y10_17 <=1 
C325: x10+x18 <=1 
C326: x10+x19 <=1 
C327: x10+x21-y10_21 <=1 
C328: x10+x24-y10_24 <=1 
C329: x10+x25 <=1 
C330: x10+x27 <=1 
C331: x10+x28 <=1 
C332: x10+x31-y10_31 <=1 
C333: x10+x33 <=1 
C334: x10+x34 <=1 
C335: x10+x35 <=1 
C336: x10+x36-y10_36 <=1 
C337: x10+x37 <=1 
C338: x10+x38-y10_38 <=1 
C339: x10+x39-y10_39 <=1 
C340: x10+x40-y10_40 <=1 
C341: x10+x41 <=1 
C342: x10+x42-y10_42 <=1 
C343: x10+x43-y10_43 <=1 
C344: x10+x44-y10_44 <=1 
C345: x10+x46 <=1 
C346: x10+x49-y10_49 <=1 
C347: x10+x50 <=1 
C348: x10+x52 <=1 
C349: x10+x53-y10_53 <=1 
C350: x10+x55 <=1 
C351: x10+x57-y10_57 <=1 
C352: x10+x58-y10_58 <=1 
C353: x10+x59 <=1 
C354: x11+x12-y11_12 <=1 
C355: x11+x14 <=1 
C356: x11+x15-y11_15 <=1 
C357: x11+x16-y11_16 <=1 
C358: x11+x20 <=1 
C359: x11+x21-y11_21 <=1 
C360: x11+x22-y11_22 <=1 
C361: x11+x28 <=1 
C362: x11+x29-y11_29 <=1 
C363: x11+x32-y11_32 <=1 
C364: x11+x33 <=1 
C365: x11+x34 <=1 
C366: x11+x38 <=1 
C367: x11+x40-y11_40 <=1 
C368: x11+x44-y11_44 <=1 
C369: x11+x50-y11_50 <=1 
C370: x11+x51 <=1 
C371: x11+x56-y11_56 <=1 
C372: x11+x57-y11_57 <=1 
C373: x11+x59 <=1 
C374: x12+x16-y12_16 <=1 
C375: x12+x17-y12_17 <=1 
C376: x12+x19 <=1 
C377: x12+x21 <=1 
C378: x12+x22-y12_22 <=1 
C379: x12+x24-y12_24 <=1 
C380: x12+x25-y12_25 <=1 
C381: x12+x26-y12_26 <=1 
C382: x12+x31 <=1 
C383: x12+x33 <=1 
C384: x12+x34-y12_34 <=1 
C385: x12+x38-y12_38 <=1 
C386: x12+x41 <=1 
C387: x12+x42-y12_42 <=1 
C388: x12+x43 <=1 
C389: x12+x44-y12_44 <=1 
C390: x12+x45 <=1 
C391: x12+x46 <=1 
C392: x12+x47 <=1 
C393: x12+x48 <=1 
C394: x12+x49 <=1 
C395: x12+x50 <=1 
C396: x12+x51-y12_51 <=1 
C397: x12+x52-y12_52 <=1 
C398: x12+x55 <=1 
C399: x12+x56-y12_56 <=1 
C400: x12+x60 <=1 
C401: x13+x15 <=1 
C402: x13+x18 <=1 
C403: x13+x21-y13_21 <=1 
C404: x13+x23-y13_23 <=1 
C405: x13+x25 <=1 
C406: x13+x26-y13_26 <=1 
C407: x13+x27 <=1 
C408: x13+x28-y13_28 <=1 
C409: x13+x30 <=1 
C410: x13+x31-y13_31 <=1 
C411: x13+x33-y13_33 <=1 
C412: x13+x34-y13_34 <=1 
C413: x13+x37-y13_37 <=1 
C414: x13+x39-y13_39 <=1 
C415: x13+x41 <=1 
C416: x13+x42-y13_42 <=1 
C417: x13+x43 <=1 
C418: x13+x44-y13_44 <=1 
C419: x13+x45 <=1 
C420: x13+x46 <=1 
C421: x13+x49 <=1 
C422: x13+x50 <=1 
C423: x13+x51-y13_51 <=1 
C424: x13+x53 <=1 
C425: x13+x54 <=1 
C426: x13+x58 <=1 
C427: x13+x59-y13_59 <=1 
C428: x14+x16 <=1 
C429: x14+x17-y14_17 <=1 
C430: x14+x18-y14_18 <=1 
C431: x14+x21-y14_21 <=1 
C432: x14+x22 <=1 
C433: x14+x24-y14_24 <=1 
C434: x14+x27-y14_27 <=1 
C435: x14+x28 <=1 
C436: x14+x29-y14_29 <=1 
C437: x14+x30-y14_30 <=1 
C438: x14+x33-y14_33 <=1 
C439: x14+x36 <=1 
C440: x14+x37 <=1 
C441: x14+x38 <=1 
C442: x14+x40-y14_40 <=1 
C443: x14+x41 <=1 
C444: x14+x42-y14_42 <=1 
C445: x14+x43 <=1 
C446: x14+x45-y14_45 <=1 
C447: x14+x48-y14_48 <=1 
C448: x14+x49-y14_49 <=1 
C449: x14+x51-y14_51 <=1 
C450: x14+x57 <=1 
C451: x14+x58 <=1 
C452: x15+x16-y15_16 <=1 
C453: x15+x17-y15_17 <=1 
C454: x15+x18 <=1 
C455: x15+x20 <=1 
C456: x15+x21 <=1 
C457: x15+x22-y15_22 <=1 
C458: x15+x23-y15_23 <=1 
C459: x15+x25 <=1 
C460: x15+x26 <=1 
C461: x15+x29-y15_29 <=1 
C462: x15+x31-y15_31 <=1 
C463: x15+x34 <=1 
C464: x15+x35 <=1 
C465: x15+x39-y15_39 <=1 
C466: x15+x41-y15_41 <=1 
C467: x15+x42-y15_42 <=1 
C468: x15+x43 <=1 
C469: x15+x44 <=1 
C470: x15+x46-y15_46 <=1 
C471: x15+x49 <=1 
C472: x15+x52-y15_52 <=1 
C473: x15+x53 <=1 
C474: x15+x54-y15_54 <=1 
C475: x15+x55 <=1 
C476: x15+x56-y15_56 <=1 
C477: x15+x58 <=1 
C478: x15+x59 <=1 
C479: x16+x17-y16_17 <=1 
C480: x16+x18 <=1 
C481: x16+x19 <=1 
C482: x16+x20-y16_20 <=1 
C483: x16+x21-y16_21 <=1 
C484: x16+x23 <=1 
C485: x16+x24-y16_24 <=1 
C486: x16+x27-y16_27 <=1 
C487: x16+x28 <=1 
C488: x16+x29 <=1 
C489: x16+x31-y16_31 <=1 
C490: x16+x33 <=1 
C491: x16+x34 <=1 
C492: x16+x37-y16_37 <=1 
C493: x16+x38 <=1 
C494: x16+x39-y16_39 <=1 
C495: x16+x41 <=1 
C496: x16+x43 <=1 
C497: x16+x44-y16_44 <=1 
C498: x16+x47-y16_47 <=1 
C499: x16+x48 <=1 
C500: x16+x49-y16_49 <=1 
C501: x16+x50 <=1 
C502: x16+x51-y16_51 <=1 
C503: x16+x53 <=1 
C504: x16+x54-y16_54 <=1 
C505: x16+x55-y16_55 <=1 
C506: x17+x18 <=1 
C507: x17+x20-y17_20 <=1 
C508: x17+x24 <=1 
C509: x17+x25 <=1 
C510: x17+x26 <=1 
C511: x17+x27 <=1 
C512: x17+x29 <=1 
C513: x17+x30-y17_30 <=1 
C514: x17+x32-y17_32 <=1 
C515: x17+x33 <=1 
C516: x17+x36 <=1 
C517: x17+x37 <=1 
C518: x17+x39-y17_39 <=1 
C519: x17+x42-y17_42 <=1 
C520: x17+x46 <=1 
C521: x17+x50-y17_50 <=1 
C522: x17+x52-y17_52 <=1 
C523: x17+x56-y17_56 <=1 
C524: x17+x57-y17_57 <=1 
C525: x18+x20 <=1 
C526: x18+x21 <=1 
C527: x18+x24 <=1 
C528: x18+x26 <=1 
C529: x18+x28-y18_28 <=1 
C530: x18+x31 <=1 
C531: x18+x32-y18_32 <=1 
C532: x18+x34 <=1 
C533: x18+x35-y18_35 <=1 
C534: x18+x37 <=1 
C535: x18+x38 <=1 
C536: x18+x39-y18_39 <=1 
C537: x18+x40-y18_40 <=1 
C538: x18+x41-y18_41 <=1 
C539: x18+x43 <=1 
C540: x18+x44 <=1 
C541: x18+x45-y18_45 <=1 
C542: x18+x46-y18_46 <=1 
C543: x18+x47 <=1 
C544: x18+x51 <=1 
C545: x18+x52 <=1 
C546: x18+x53-y18_53 <=1 
C547: x18+x55-y18_55 <=1 
C548: x18+x56 <=1 
C549: x18+x58 <=1 
C550: x18+x59 <=1 
C551: x18+x60 <=1 
C552: x19+x20 <=1 
C553: x19+x21-y19_21 <=1 
C554: x19+x22 <=1 
C555: x19+x25-y19_25 <=1 
C556: x19+x26 <=1 
C557: x19+x28-y19_28 <=1 
C558: x19+x30 <=1 
C559: x19+x31 <=1 
C560: x19+x34-y19_34 <=1 
C561: x19+x36-y19_36 <=1 
C562: x19+x37-y19_37 <=1 
C563: x19+x38 <=1 
C564: x19+x40-y19_40 <=1 
C565: x19+x41 <=1 
C566: x19+x43 <=1 
C567: x19+x45-y19_45 <=1 
C568: x19+x47 <=1 
C569: x19+x49 <=1 
C570: x19+x50-y19_50 <=1 
C571: x19+x52 <=1 
C572: x19+x56 <=1 
C573: x19+x57 <=1 
C574: x19+x59-y19_59 <=1 
C575: x20+x22 <=1 
C576: x20+x24 <=1 
C577: x20+x25-y20_25 <=1 
C578: x20+x26-y20_26 <=1 
C579: x20+x27 <=1 
C580: x20+x33 <=1 
C581: x20+x35-y20_35 <=1 
C582: x20+x37 <=1 
C583: x20+x38-y20_38 <=1 
C584: x20+x39-y20_39 <=1 
C585: x20+x41-y20_41 <=1 
C586: x20+x43-y20_43 <=1 
C587: x20+x44-y20_44 <=1 
C588: x20+x48 <=1 
C589: x20+x49-y20_49 <=1 
C590: x20+x54 <=1 
C591: x20+x55 <=1 
C592: x20+x57-y20_57 <=1 
C593: x20+x59-y20_59 <=1 
C594: x21+x23 <=1 
C595: x21+x27-y21_27 <=1 
C596: x21+x28-y21_28 <=1 
C597: x21+x29 <=1 
C598: x21+x30-y21_30 <=1 
C599: x21+x31 <=1 
C600: x21+x32-y21_32 <=1 
C601: x21+x33-y21_33 <=1 
C602: x21+x34-y21_34 <=1 
C603: x21+x36 <=1 
C604: x21+x37-y21_37 <=1 
C605: x21+x38 <=1 
C606: x21+x40-y21_40 <=1 
C607: x21+x42-y21_42 <=1 
C608: x21+x43-y21_43 <=1 
C609: x21+x44 <=1 
C610: x21+x45 <=1 
C611: x21+x47 <=1 
C612: x21+x48-y21_48 <=1 
C613: x21+x52-y21_52 <=1 
C614: x21+x53-y21_53 <=1 
C615: x21+x54 <=1 
C616: x21+x57 <=1 
C617: x21+x58 <=1 
C618: x21+x59 <=1 
C619: x21+x60 <=1 
C620: x22+x23 <=1 
C621: x22+x25 <=1 
C622: x22+x28 <=1 
C623: x22+x31 <=1 
C624: x22+x34-y22_34 <=1 
C625: x22+x35-y22_35 <=1 
C626: x22+x39-y22_39 <=1 
C627: x22+x40 <=1 
C628: x22+x43 <=1 
C629: x22+x44 <=1 
C630: x22+x47-y22_47 <=1 
C631: x22+x49 <=1 
C632: x22+x53-y22_53 <=1 
C633: x22+x54 <=1 
C634: x22+x56 <=1 
C635: x22+x57 <=1 
C636: x22+x58-y22_58 <=1 
C637: x23+x27 <=1 
C638: x23+x31 <=1 
C639: x23+x32 <=1 
C640: x23+x34 <=1 
C641: x23+x35 <=1 
C642: x23+x36-y23_36 <=1 
C643: x23+x38 <=1 
C644: x23+x39 <=1 
C645: x23+x41 <=1 
C646: x23+x43 <=1 
C647: x23+x44 <=1 
C648: x23+x45-y23_45 <=1 
C649: x23+x46-y23_46 <=1 
C650: x23+x47 <=1 
C651: x23+x48-y23_48 <=1 
C652: x23+x49 <=1 
C653: x23+x51 <=1 
C654: x23+x52 <=1 
C655: x23+x54 <=1 
C656: x23+x55 <=1 
C657: x23+x58-y23_58 <=1 
C658: x23+x59 <=1 
C659: x23+x60-y23_60 <=1 
C660: x24+x25 <=1 
C661: x24+x30-y24_30 <=1 
C662: x24+x31-y24_31 <=1 
C663: x24+x32 <=1 
C664: x24+x36 <=1 
C665: x24+x37-y24_37 <=1 
C666: x24+x38-y24_38 <=1 
C667: x24+x40 <=1 
C668: x24+x41 <=1 
C669: x24+x43 <=1 
C670: x24+x45 <=1 
C671: x24+x46-y24_46 <=1 
C672: x24+x47 <=1 
C673: x24+x48-y24_48 <=1 
C674: x24+x49-y24_49 <=1 
C675: x24+x50 <=1 
C676: x24+x53 <=1 
C677: x24+x55 <=1 
C678: x24+x57-y24_57 <=1 
C679: x24+x60 <=1 
C680: x25+x30 <=1 
C681: x25+x31-y25_31 <=1 
C682: x25+x32-y25_32 <=1 
C683: x25+x33 <=1 
C684: x25+x34-y25_34 <=1 
C685: x25+x36 <=1 
C686: x25+x38 <=1 
C687: x25+x40 <=1 
C688: x25+x41-y25_41 <=1 
C689: x25+x42-y25_42 <=1 
C690: x25+x43-y25_43 <=1 
C691: x25+x44 <=1 
C692: x25+x45-y25_45 <=1 
C693: x25+x46 <=1 
C694: x25+x49 <=1 
C695: x25+x53-y25_53 <=1 
C696: x25+x57-y25_57 <=1 
C697: x25+x59 <=1 
C698: x25+x60 <=1 
C699: x26+x27 <=1 
C700: x26+x28-y26_28 <=1 
C701: x26+x30 <=1 
C702: x26+x31-y26_31 <=1 
C703: x26+x32 <=1 
C704: x26+x33 <=1 
C705: x26+x34-y26_34 <=1 
C706: x26+x35 <=1 
C707: x26+x37 <=1 
C708: x26+x38-y26_38 <=1 
C709: x26+x41 <=1 
C710: x26+x44-y26_44 <=1 
C711: x26+x45 <=1 
C712: x26+x46 <=1 
C713: x26+x47-y26_47 <=1 
C714: x26+x49-y26_49 <=1 
C715: x26+x50 <=1 
C716: x26+x51 <=1 
C717: x26+x52-y26_52 <=1 
C718: x26+x55-y26_55 <=1 
C719: x26+x57 <=1 
C720: x26+x58 <=1 
C721: x26+x59-y26_59 <=1 
C722: x27+x30 <=1 
C723: x27+x33 <=1 
C724: x27+x34-y27_34 <=1 
C725: x27+x35 <=1 
C726: x27+x37-y27_37 <=1 
C727: x27+x38 <=1 
C728: x27+x39-y27_39 <=1 
C729: x27+x41-y27_41 <=1 
C730: x27+x42-y27_42 <=1 
C731: x27+x44-y27_44 <=1 
C732: x27+x45-y27_45 <=1 
C733: x27+x46-y27_46 <=1 
C734: x27+x47 <=1 
C735: x27+x48 <=1 
C736: x27+x49-y27_49 <=1 
C737: x27+x50-y27_50 <=1 
C738: x27+x51 <=1 
C739: x27+x52 <=1 
C740: x27+x53-y27_53 <=1 
C741: x27+x55-y27_55 <=1 
C742: x27+x57 <=1 
C743: x27+x60 <=1 
C744: x28+x32 <=1 
C745: x28+x33-y28_33 <=1 
C746: x28+x34-y28_34 <=1 
C747: x28+x36 <=1 
C748: x28+x38 <=1 
C749: x28+x41 <=1 
C750: x28+x44-y28_44 <=1 
C751: x28+x45 <=1 
C752: x28+x46 <=1 
C753: x28+x47 <=1 
C754: x28+x49-y28_49 <=1 
C755: x28+x50 <=1 
C756: x28+x54 <=1 
C757: x28+x57 <=1 
C758: x28+x58 <=1 
C759: x28+x59 <=1 
C760: x29+x30-y29_30 <=1 
C761: x29+x31-y29_31 <=1 
C762: x29+x34-y29_34 <=1 
C763: x29+x36 <=1 
C764: x29+x37 <=1 
C765: x29+x39 <=1 
C766: x29+x41-y29_41 <=1 
C767: x29+x42 <=1 
C768: x29+x44 <=1 
C769: x29+x49-y29_49 <=1 
C770: x29+x51-y29_51 <=1 
C771: x29+x55-y29_55 <=1 
C772: x29+x56 <=1 
C773: x29+x59-y29_59 <=1 
C774: x30+x31 <=1 
C775: x30+x32-y30_32 <=1 
C776: x30+x33-y30_33 <=1 
C777: x30+x37 <=1 
C778: x30+x39-y30_39 <=1 
C779: x30+x40 <=1 
C780: x30+x43 <=1 
C781: x30+x44-y30_44 <=1 
C782: x30+x46-y30_46 <=1 
C783: x30+x47 <=1 
C784: x30+x48-y30_48 <=1 
C785: x30+x49 <=1 
C786: x30+x53 <=1 
C787: x30+x55 <=1 
C788: x30+x56 <=1 
C789: x30+x58 <=1 
C790: x30+x59-y30_59 <=1 
C791: x31+x33-y31_33 <=1 
C792: x31+x36 <=1 
C793: x31+x40 <=1 
C794: x31+x41-y31_41 <=1 
C795: x31+x42-y31_42 <=1 
C796: x31+x43-y31_43 <=1 
C797: x31+x44 <=1 
C798: x31+x48-y31_48 <=1 
C799: x31+x50-y31_50 <=1 
C800: x31+x52 <=1 
C801: x31+x54-y31_54 <=1 
C802: x31+x56 <=1 
C803: x31+x57-y31_57 <=1 
C804: x31+x58-y31_58 <=1 
C805: x32+x34 <=1 
C806: x32+x36 <=1 
C807: x32+x37-y32_37 <=1 
C808: x32+x38 <=1 
C809: x32+x39-y32_39 <=1 
C810: x32+x40 <=1 
C811: x32+x41 <=1 
C812: x32+x43-y32_43 <=1 
C813: x32+x45-y32_45 <=1 
C814: x32+x46 <=1 
C815: x32+x47 <=1 
C816: x32+x49 <=1 
C817: x32+x50-y32_50 <=1 
C818: x32+x51 <=1 
C819: x32+x55-y32_55 <=1 
C820: x32+x57-y32_57 <=1 
C821: x32+x58-y32_58 <=1 
C822: x32+x59-y32_59 <=1 
C823: x32+x60 <=1 
C824: x33+x34 <=1 
C825: x33+x35 <=1 
C826: x33+x36 <=1 
C827: x33+x37 <=1 
C828: x33+x38 <=1 
C829: x33+x39 <=1 
C830: x33+x40 <=1 
C831: x33+x41-y33_41 <=1 
C832: x33+x42-y33_42 <=1 
C833: x33+x45-y33_45 <=1 
C834: x33+x49-y33_49 <=1 
C835: x33+x50 <=1 
C836: x33+x52-y33_52 <=1 
C837: x33+x54-y33_54 <=1 
C838: x33+x58 <=1 
C839: x33+x60 <=1 
C840: x34+x35-y34_35 <=1 
C841: x34+x36-y34_36 <=1 
C842: x34+x40-y34_40 <=1 
C843: x34+x42-y34_42 <=1 
C844: x34+x43 <=1 
C845: x34+x44-y34_44 <=1 
C846: x34+x47-y34_47 <=1 
C847: x34+x48 <=1 
C848: x34+x49 <=1 
C849: x34+x50 <=1 
C850: x34+x51-y34_51 <=1 
C851: x34+x55-y34_55 <=1 
C852: x34+x57 <=1 
C853: x34+x59-y34_59 <=1 
C854: x34+x60 <=1 
C855: x35+x40-y35_40 <=1 
C856: x35+x41-y35_41 <=1 
C857: x35+x42 <=1 
C858: x35+x43 <=1 
C859: x35+x45-y35_45 <=1 
C860: x35+x47-y35_47 <=1 
C861: x35+x48-y35_48 <=1 
C862: x35+x49 <=1 
C863: x35+x50-y35_50 <=1 
C864: x35+x51 <=1 
C865: x35+x52-y35_52 <=1 
C866: x35+x53-y35_53 <=1 
C867: x35+x55 <=1 
C868: x35+x56 <=1 
C869: x35+x58-y35_58 <=1 
C870: x35+x60 <=1 
C871: x36+x39-y36_39 <=1 
C872: x36+x40-y36_40 <=1 
C873: x36+x42-y36_42 <=1 
C874: x36+x44 <=1 
C875: x36+x47-y36_47 <=1 
C876: x36+x48-y36_48 <=1 
C877: x36+x49-y36_49 <=1 
C878: x36+x50 <=1 
C879: x36+x52 <=1 
C880: x36+x53 <=1 
C881: x36+x54 <=1 
C882: x36+x55 <=1 
C883: x36+x56-y36_56 <=1 
C884: x36+x57 <=1 
C885: x36+x58-y36_58 <=1 
C886: x36+x59 <=1 
C887: x36+x60 <=1 
C888: x37+x40 <=1 
C889: x37+x41-y37_41 <=1 
C890: x37+x44-y37_44 <=1 
C891: x37+x48-y37_48 <=1 
C892: x37+x49-y37_49 <=1 
C893: x37+x50 <=1 
C894: x37+x51-y37_51 <=1 
C895: x37+x52-y37_52 <=1 
C896: x37+x53 <=1 
C897: x37+x54-y37_54 <=1 
C898: x37+x57-y37_57 <=1 
C899: x37+x58 <=1 
C900: x37+x59 <=1 
C901: x37+x60-y37_60 <=1 
C902: x38+x39-y38_39 <=1 
C903: x38+x40 <=1 
C904: x38+x42-y38_42 <=1 
C905: x38+x43 <=1 
C906: x38+x44 <=1 
C907: x38+x48-y38_48 <=1 
C908: x38+x49 <=1 
C909: x38+x53 <=1 
C910: x38+x55 <=1 
C911: x38+x57-y38_57 <=1 
C912: x38+x60 <=1 
C913: x39+x40 <=1 
C914: x39+x46 <=1 
C915: x39+x48 <=1 
C916: x39+x51 <=1 
C917: x39+x52-y39_52 <=1 
C918: x39+x53 <=1 
C919: x39+x54 <=1 
C920: x39+x57 <=1 
C921: x39+x58-y39_58 <=1 
C922: x39+x59-y39_59 <=1 
C923: x39+x60 <=1 
C924: x40+x42 <=1 
C925: x40+x43 <=1 
C926: x40+x44 <=1 
C927: x40+x46-y40_46 <=1 
C928: x40+x48 <=1 
C929: x40+x49 <=1 
C930: x40+x50 <=1 
C931: x40+x51-y40_51 <=1 
C932: x40+x52 <=1 
C933: x40+x54 <=1 
C934: x40+x58 <=1 
C935: x40+x59-y40_59 <=1 
C936: x41+x42 <=1 
C937: x41+x43 <=1 
C938: x41+x45-y41_45 <=1 
C939: x41+x46-y41_46 <=1 
C940: x41+x47 <=1 
C941: x41+x48-y41_48 <=1 
C942: x41+x49-y41_49 <=1 
C943: x41+x51 <=1 
C944: x41+x52-y41_52 <=1 
C945: x41+x54 <=1 
C946: x41+x55-y41_55 <=1 
C947: x41+x58-y41_58 <=1 
C948: x41+x59-y41_59 <=1 
C949: x41+x60 <=1 
C950: x42+x46-y42_46 <=1 
C951: x42+x48-y42_48 <=1 
C952: x42+x49 <=1 
C953: x42+x52-y42_52 <=1 
C954: x42+x53-y42_53 <=1 
C955: x42+x54 <=1 
C956: x42+x55 <=1 
C957: x42+x57 <=1 
C958: x42+x59-y42_59 <=1 
C959: x43+x45-y43_45 <=1 
C960: x43+x46-y43_46 <=1 
C961: x43+x47 <=1 
C962: x43+x48-y43_48 <=1 
C963: x43+x49 <=1 
C964: x43+x51 <=1 
C965: x43+x52-y43_52 <=1 
C966: x43+x53-y43_53 <=1 
C967: x43+x56-y43_56 <=1 
C968: x43+x57-y43_57 <=1 
C969: x44+x45-y44_45 <=1 
C970: x44+x47-y44_47 <=1 
C971: x44+x48 <=1 
C972: x44+x49 <=1 
C973: x44+x50-y44_50 <=1 
C974: x44+x51-y44_51 <=1 
C975: x44+x52 <=1 
C976: x44+x53-y44_53 <=1 
C977: x44+x54 <=1 
C978: x44+x55 <=1 
C979: x44+x56-y44_56 <=1 
C980: x44+x57 <=1 
C981: x44+x59 <=1 
C982: x45+x46-y45_46 <=1 
C983: x45+x47 <=1 
C984: x45+x48-y45_48 <=1 
C985: x45+x51 <=1 
C986: x45+x53-y45_53 <=1 
C987: x45+x54 <=1 
C988: x45+x58-y45_58 <=1 
C989: x45+x59-y45_59 <=1 
C990: x45+x60 <=1 
C991: x46+x48-y46_48 <=1 
C992: x46+x52 <=1 
C993: x46+x53-y46_53 <=1 
C994: x46+x58 <=1 
C995: x46+x60-y46_60 <=1 
C996: x47+x49 <=1 
C997: x47+x51-y47_51 <=1 
C998: x47+x52-y47_52 <=1 
C999: x47+x54 <=1 
C1000: x47+x55-y47_55 <=1 
C1001: x47+x56 <=1 
C1002: x47+x57 <=1 
C1003: x47+x58 <=1 
C1004: x47+x60 <=1 
C1005: x48+x49-y48_49 <=1 
C1006: x48+x54 <=1 
C1007: x48+x57-y48_57 <=1 
C1008: x48+x59 <=1 
C1009: x48+x60 <=1 
C1010: x49+x50-y49_50 <=1 
C1011: x49+x53 <=1 
C1012: x49+x54-y49_54 <=1 
C1013: x49+x55 <=1 
C1014: x49+x56-y49_56 <=1 
C1015: x49+x58-y49_58 <=1 
C1016: x49+x59 <=1 
C1017: x50+x57 <=1 
C1018: x50+x58 <=1 
C1019: x50+x60 <=1 
C1020: x51+x52 <=1 
C1021: x51+x53-y51_53 <=1 
C1022: x51+x55 <=1 
C1023: x51+x56-y51_56 <=1 
C1024: x51+x57 <=1 
C1025: x52+x53-y52_53 <=1 
C1026: x52+x54-y52_54 <=1 
C1027: x52+x56-y52_56 <=1 
C1028: x52+x57 <=1 
C1029: x52+x58-y52_58 <=1 
C1030: x52+x60 <=1 
C1031: x53+x59-y53_59 <=1 
C1032: x53+x60-y53_60 <=1 
C1033: x54+x56 <=1 
C1034: x54+x58 <=1 
C1035: x54+x59 <=1 
C1036: x54+x60-y54_60 <=1 
C1037: x55+x57-y55_57 <=1 
C1038: x55+x60 <=1 
C1039: x56+x57 <=1 
C1040: x56+x59 <=1 
C1041: x57+x58 <=1 
C1042: x57+x59-y57_59 <=1 
C1043: x57+x60-y57_60 <=1 
C1044: x58+x60 <=1 
C1045: x59+x60-y59_60 <=1 

binary
x0
x1
x2
x3
x4
x5
x6
x7
x8
x9
x10
x11
x12
x13
x14
x15
x16
x17
x18
x19
x20
x21
x22
x23
x24
x25
x26
x27
x28
x29
x30
x31
x32
x33
x34
x35
x36
x37
x38
x39
x40
x41
x42
x43
x44
x45
x46
x47
x48
x49
x50
x51
x52
x53
x54
x55
x56
x57
x58
x59
x60
