problem_generation/data/GISP/train/er_n=61_m=1045_p=0.60_SET2_setparam=100.00_alpha=0.50_185.sol
objective value:                                 1176
x1                                                  1 	(obj:100)
x17                                                 1 	(obj:100)
x22                                                 1 	(obj:100)
x30                                                 1 	(obj:100)
x35                                                 1 	(obj:100)
x38                                                 1 	(obj:100)
x39                                                 1 	(obj:100)
x41                                                 1 	(obj:100)
x45                                                 1 	(obj:100)
x50                                                 1 	(obj:100)
x52                                                 1 	(obj:100)
x59                                                 1 	(obj:100)
y17_39                                              1 	(obj:-1)
y17_52                                              1 	(obj:-1)
y35_41                                              1 	(obj:-1)
y35_50                                              1 	(obj:-1)
y39_52                                              1 	(obj:-1)
y35_45                                              1 	(obj:-1)
y1_38                                               1 	(obj:-1)
y30_59                                              1 	(obj:-1)
y41_59                                              1 	(obj:-1)
y41_45                                              1 	(obj:-1)
y22_35                                              1 	(obj:-1)
y22_39                                              1 	(obj:-1)
y17_50                                              1 	(obj:-1)
y39_59                                              1 	(obj:-1)
y1_50                                               1 	(obj:-1)
y35_52                                              1 	(obj:-1)
y1_22                                               1 	(obj:-1)
y17_30                                              1 	(obj:-1)
y30_39                                              1 	(obj:-1)
y38_39                                              1 	(obj:-1)
y1_30                                               1 	(obj:-1)
y1_39                                               1 	(obj:-1)
y45_59                                              1 	(obj:-1)
y41_52                                              1 	(obj:-1)
